20	13000	3000	1200
2316	868	591
3957	792	657
2161	754	748
3735	674	723
3393	536	540
2053	680	746
3471	702	545
3718	697	725
4754	891	528
3173	603	509
2740	752	691
2553	832	559
2441	711	669
4848	513	537
2462	800	738
2498	501	625
4273	595	670
3499	681	645
2860	836	516
2780	882	548
